Route #1: 25 53 6 24 45 41 42 47
Route #2: 21 26 4 39 37 15 29
Route #3: 7 46 28 40 5 51 17 8 10
Route #4: 14 44 23 22 50 38 9 12
Route #5: 19 18 43 2 34 54 30 31 20 55 11 33 49
Route #6: 3 13 36 32 48 35 16
Route #7: 27 52 1
Cost 744